StudentsNr = 20;
InstructorsNr = 15;
DaysNr = 2;
SlotsPerDay = 10;
AvailabilitySlotsLenght = 2;
RoomNr = 2;
ProgrammNr = 2;
DegreeNr = 1;
RolesNr = 2;
CoursesNr = 4;
InstructorsProgramm = [{1, 2}, {1}, {2}, {2}, {1}, {1, 2}, {2}, {1}, {1, 2}, {1, 2}, {2}, {1, 2}, {1}, {1}, {1, 2}];
InstructorRolesPerProgramm = [|{5, 8, 10, 13}, {1, 12, 13, 14, 15}|{3, 7, 10, 11}, {1, 3, 12, 15}|];
InstructorsAvailability = [|0, 0, 1, 1, 1, 1, 1, 1, 1, 1, |0, 1, 0, 0, 1, 0, 1, 1, 0, 1, |0, 1, 1, 1, 1, 1, 1, 1, 1, 1, |0, 0, 1, 1, 1, 1, 0, 1, 1, 1, |0, 1, 1, 1, 1, 0, 1, 1, 1, 1, |1, 0, 0, 1, 1, 1, 1, 1, 1, 1, |0, 1, 1, 1, 1, 0, 0, 0, 0, 1, |1, 1, 1, 0, 0, 1, 1, 1, 0, 1, |0, 1, 0, 1, 0, 0, 1, 0, 1, 1, |1, 1, 0, 1, 1, 1, 0, 1, 1, 0, |1, 1, 1, 1, 1, 1, 1, 1, 0, 1, |1, 1, 1, 0, 1, 0, 0, 1, 1, 1, |1, 1, 1, 1, 1, 1, 0, 1, 1, 1, |1, 1, 1, 1, 1, 1, 1, 1, 1, 1, |1, 1, 1, 0, 0, 0, 1, 1, 1, 1|];
StudentsProgramm = [1, 1, 2, 2, 1, 2, 2, 1, 1, 1, 2, 1, 2, 2, 2, 2, 2, 1, 1, 1];
StudentsDegree = [1, 1, 1, 1, 1, 1, 1, 1, 1, 1, 1, 1, 1, 1, 1, 1, 1, 1, 1, 1];
StudentsSupervisorId = [15, 12, 9, 1, 1, 1, 12, 2, 2, 13, 15, 14, 9, 9, 12, 1, 9, 12, 15, 12];
StudentsCourseIds = [{1, 2, 3, 4}, {1, 2, 3, 4}, {1, 2, 3, 4}, {1, 2, 3, 4}, {1, 2, 3, 4}, {1, 2, 3, 4}, {1, 2, 3, 4}, {1, 2, 3, 4}, {1, 2, 3, 4}, {1, 2, 3, 4}, {1, 2, 3, 4}, {1, 2, 3, 4}, {1, 2, 3, 4}, {1, 2, 3, 4}, {1, 2, 3, 4}, {1, 2, 3, 4}, {1, 2, 3, 4}, {1, 2, 3, 4}, {1, 2, 3, 4}, {1, 2, 3, 4}];
StudentsAvailability = [|0, 0, 0, 1, 1, 1, 1, 1, 1, 1, |0, 1, 1, 1, 1, 1, 1, 1, 1, 1, |1, 1, 1, 1, 1, 1, 1, 1, 1, 1, |0, 0, 0, 1, 1, 1, 1, 1, 1, 1, |0, 0, 1, 1, 1, 1, 1, 1, 1, 1, |1, 1, 1, 1, 1, 1, 0, 0, 0, 1, |0, 0, 0, 0, 1, 1, 1, 0, 1, 0, |0, 1, 1, 1, 1, 1, 1, 1, 1, 1, |0, 0, 0, 0, 1, 1, 1, 1, 1, 1, |0, 0, 0, 0, 0, 1, 1, 1, 1, 1, |0, 1, 1, 1, 1, 1, 1, 1, 1, 1, |0, 1, 1, 1, 1, 1, 1, 1, 1, 1, |0, 1, 1, 1, 1, 1, 1, 1, 1, 1, |1, 1, 1, 1, 0, 1, 1, 1, 1, 1, |0, 0, 1, 1, 0, 1, 1, 1, 1, 1, |1, 1, 1, 1, 1, 1, 1, 1, 1, 1, |0, 1, 1, 1, 1, 1, 1, 1, 1, 0, |0, 1, 1, 1, 1, 1, 1, 1, 1, 1, |1, 1, 1, 1, 1, 1, 1, 0, 1, 1, |1, 1, 1, 1, 1, 1, 1, 1, 1, 1|];
TheoryticalMinCard = [0, 0, 0, 0, 0, 0, 0, 0, 0, 0, 0, 0, 0, 0, 0, 0, 0, 0, 0, 0];
CoursesInstructorIds = [{4, 7, 10, 11}, {1, 2, 4, 9, 12, 13}, {2, 6, 12, 14, 15}, {1, 2, 5, 8, 9, 10, 12}];
RolesDemands = [4, 3];
RolesContinuity = [1];
ExamLen = [1, 1, 1, 1, 1, 1, 1, 1, 1, 1, 1, 1, 1, 1, 1, 1, 1, 1, 1, 1];
LunchTsMinLen = 0;
LunchStarts = [5..6, 15..16];
SupervisorAvailable = 5;
OptimalLunchLenght = [2, 0];
OptimalStartTs = [1, 2];
OptimalFinishTs = [1, 9];
MinimizeRooms = 400;
RolesSoftContinuity = [|1, 2|2, 0|];
SameDegreeInRoom = 20;
Mergeability = 0;
